c ---- [ banner ] ------------------------------------------------------------
c
c Kissat SAT Solver
c 
c Copyright (c) 2021-2022 Armin Biere University of Freiburg
c Copyright (c) 2019-2021 Armin Biere Johannes Kepler University Linz
c 
c Version 3.0.0 97917ddf2b12adc6f63c7b2a5a403a1ee7d81836
c gcc (Ubuntu 9.4.0-1ubuntu1~20.04.1) 9.4.0 -W -Wall -O3 -DNDEBUG
c Fri Oct 7 14:23:58 PDT 2022 Linux jap-Lenovo-Yoga-C740-15IML 5.15.0-48-generic x86_64
c
c ---- [ parsing ] -----------------------------------------------------------
c
c opened and reading DIMACS file:
c
c   Pigeon9Holes6
c
c parsed 'p cnf 54 225' header
c closing input after reading 2272 bytes (2 KB)
c finished parsing after 0.00 seconds
c
c ---- [ solving ] -----------------------------------------------------------
c
c  seconds switched rate      trail  variables
c         MB reductions conflicts glue   remaining
c          level restarts redundant irredundant
c
c *  0.00  1 0 0 0  0 0   0   0 0% 0 225 54 98%
c {  0.00  1 0 0 0  0 0   0   0 0% 0 225 54 98%
c i  0.00  1 6 0 0  7 2 206 203 95% 4 225 53 96%
c i  0.00  1 7 0 0 29 2 364 357 95% 4 225 52 95%
c u  0.00  1 7 0 0 44 2 562 146 95% 4 225 52 95%
c v  0.00  1 7 0 0 44 2 562 135 95% 4 225 52 95%
c i  0.01  1 7 0 0 44 2 601 173 95% 4 225 51 93%
c i  0.01  1 7 0 0 86 2 760 328 94% 4 225 50 91%
c i  0.01  3 7 0 0 94 2 951 516 94% 4 225 47 85%
c -  0.01  3 7 0 1 94 2 1001 264 94% 4 173 47 85%
c }  0.01  3 7 1 1 94 2 1001 264 94% 4 173 47 85%
c [  0.01  3 0 1 1 94 0 1001 264 0% 0 173 47 85%
c B  0.01  3 0 1 1 94 0 1001 264 0% 0 173 47 85%
c i  0.01  3 6 1 1 94 2 1014 276 94% 2 173 46 84%
c i  0.01  3 6 1 1 94 2 1026 287 91% 2 173 45 82%
c i  0.01  3 6 1 1 94 2 1030 290 90% 2 173 44 80%
c i  0.01  3 6 1 1 94 2 1038 296 91% 2 173 43 78%
c i  0.01  3 6 1 1 94 1 1046 303 91% 2 173 42 76%
c i  0.01  3 5 1 1 94 1 1058 314 90% 2 173 35 64%
c i  0.01  3 5 1 1 94 1 1062 317 90% 2 173 34 62%
c
c  seconds switched rate        trail  variables
c         MB reductions conflicts  glue    remaining
c          level restarts redundant irredundant
c
c i  0.01  3 5 1 1 94 1 1066 320 90% 2 173 24 44%
c i  0.01  3 5 1 1 94 1 1069 322 89% 2 173 17 31%
c i  0.01  3 5 1 1 94 1 1070 322 89% 2 173 16 29%
c ]  0.01  3 5 1 1 94 1 1072 322 89% 2 173  8 15%
c 0  0.01  3 7 1 1 94 2 1072 322 94% 4 173  8 15%
c
c ---- [ result ] ------------------------------------------------------------
c
s UNSATISFIABLE
c
c ---- [ profiling ] ---------------------------------------------------------
c
c           0.01   89.96 %  search
c           0.01   81.65 %  focused
c           0.00    8.00 %  probe
c           0.00    8.00 %  simplify
c           0.00    7.51 %  stable
c           0.00    4.93 %  vivify
c           0.00    1.80 %  reduce
c           0.00    1.42 %  substitute
c           0.00    1.06 %  parse
c           0.00    1.06 %  sweep
c           0.00    0.54 %  backbone
c =============================================
c           0.01  100.00 %  total
c
c ---- [ statistics ] --------------------------------------------------------
c
c conflicts:                             1072           102958.13 per second
c decisions:                             1857                1.73 per conflict
c propagations:                         22321          2143776    per second
c reductions:                               1             1072    interval
c rephased:                                 1             1072    interval
c restarts:                                94               11.40 interval
c strengthened:                            27                0 %  checks
c subsumed:                                 1                0 %  checks
c vivified:                               115               92 %  checks
c
c ---- [ resources ] ---------------------------------------------------------
c
c maximum-resident-set-size:          2777088 bytes          3 MB
c process-time:                                              0.01 seconds
c
c ---- [ shutting down ] -----------------------------------------------------
c
c exit 20
